NAME : sko-100.-1000.tour
COMMENT : Length = -1000
COMMENT : Found by LKH [Keld Helsgaun] Sun Apr 13 17:05:01 2025
TYPE : TOUR
DIMENSION : 100
TOUR_SECTION
1
31
54
74
93
56
89
73
40
10
45
3
68
98
59
33
8
66
72
92
53
4
55
13
16
11
95
34
81
70
47
71
37
75
35
7
100
58
60
25
63
5
79
39
83
50
21
17
29
65
96
42
24
57
32
99
67
94
43
22
15
6
91
18
97
78
44
19
86
87
41
28
85
23
88
20
69
51
82
36
38
48
76
64
90
26
61
12
62
9
84
30
80
27
52
49
2
77
14
46
-1
EOF
